NAME: tsp30-27
TYPE: TSP
DIMENSION: 30
EDGE_WEIGHT_TYPE: EUC_2D
NODE_COORD_SECTION
0 86 18
1 3 76
2 17 13
3 100 27
4 68 45
5 61 80
6 49 95
7 66 61
8 74 44
9 45 15
10 56 43
11 90 29
12 24 40
13 17 48
14 29 11
15 74 3
16 40 19
17 70 61
18 1 22
19 85 75
20 73 88
21 1 56
22 42 52
23 83 6
24 71 9
25 81 83
26 26 71
27 58 24
28 2 65
29 29 20
EOF